1846.24
0 46 118 18 130 119 131 116 115 129 128 127 126 124 122 132 0 
0 113 121 120 114 0 
0 82 87 89 90 92 93 94 96 97 98 100 101 102 49 86 84 85 125 111 110 109 108 107 106 0 
0 74 52 95 33 0 
0 23 59 60 61 54 55 103 56 57 105 104 53 58 45 34 76 77 64 78 63 79 67 133 80 68 69 70 81 112 123 117 65 0 
0 91 21 25 26 27 28 31 29 38 39 37 36 99 35 40 43 44 41 42 3 4 5 9 8 6 7 14 15 88 13 16 51 50 62 1 75 47 72 73 134 32 48 66 71 17 19 20 0 
0 22 24 30 2 10 12 11 83 0 
